NAME : XML100_3245_02
DIMENSION : 101
NB_CLUSTERS : 3
CLUSTERING_ALG : DBSCAN
CLUSTERING_PARAMS : eps(130), minSamples(3)
CLUSTERS
1 0
2 1 3 4 5 6 7 8 9 10 11 12 18 19 20 21 22 23 24 26 27 28 29 30 31 33 34 35 37 38 39 40 41 43 45 46 48 49 50 51 52 54 55 57 58 59 60 61 62 63 64 65 67 68 69 70 72 73 74 75 76 77 78 79 80 81 82 83 85 86 87 88 89 90 92 93 94 96 97 98 99 100
3 2 13 14 15 16 17 25 32 36 42 44 47 53 56 66 71 84 91 95
EOF